(set-option :produce-models true)
(declare-fun li_0 () Real)
(assert (and (>= li_0 0.000000) (<= li_0 42.000000)))
(declare-fun li_12 () Real)
(assert (and (>= li_12 0.000000) (<= li_12 42.000000)))
(declare-fun li_13 () Real)
(assert (and (>= li_13 0.000000) (<= li_13 42.000000)))
(declare-fun li_14 () Real)
(assert (and (>= li_14 0.000000) (<= li_14 42.000000)))
(declare-fun li_15 () Real)
(assert (and (>= li_15 0.000000) (<= li_15 42.000000)))
(declare-fun li_16 () Real)
(assert (and (>= li_16 0.000000) (<= li_16 42.000000)))
(declare-fun li_17 () Real)
(assert (and (>= li_17 0.000000) (<= li_17 42.000000)))
(declare-fun li_18 () Real)
(assert (and (>= li_18 0.000000) (<= li_18 42.000000)))
(declare-fun li_19 () Real)
(assert (and (>= li_19 0.000000) (<= li_19 42.000000)))
(declare-fun li_2 () Real)
(assert (and (>= li_2 0.000000) (<= li_2 42.000000)))
(declare-fun li_20 () Real)
(assert (and (>= li_20 0.000000) (<= li_20 42.000000)))
(declare-fun li_21 () Real)
(assert (and (>= li_21 0.000000) (<= li_21 42.000000)))
(declare-fun li_22 () Real)
(assert (and (>= li_22 0.000000) (<= li_22 42.000000)))
(declare-fun li_23 () Real)
(assert (and (>= li_23 0.000000) (<= li_23 42.000000)))
(declare-fun li_24 () Real)
(assert (and (>= li_24 0.000000) (<= li_24 42.000000)))
(declare-fun li_25 () Real)
(assert (and (>= li_25 0.000000) (<= li_25 42.000000)))
(declare-fun li_26 () Real)
(assert (and (>= li_26 0.000000) (<= li_26 42.000000)))
(declare-fun li_3 () Real)
(assert (and (>= li_3 0.000000) (<= li_3 42.000000)))
(declare-fun li_34 () Real)
(assert (and (>= li_34 0.000000) (<= li_34 42.000000)))
(declare-fun li_35 () Real)
(assert (and (>= li_35 0.000000) (<= li_35 42.000000)))
(declare-fun li_37 () Real)
(assert (and (>= li_37 0.000000) (<= li_37 42.000000)))
(declare-fun li_38 () Real)
(assert (and (>= li_38 0.000000) (<= li_38 42.000000)))
(declare-fun li_39 () Real)
(assert (and (>= li_39 0.000000) (<= li_39 42.000000)))
(declare-fun li_4 () Real)
(assert (and (>= li_4 0.000000) (<= li_4 42.000000)))
(declare-fun li_40 () Real)
(assert (and (>= li_40 0.000000) (<= li_40 42.000000)))
(declare-fun li_41 () Real)
(assert (and (>= li_41 0.000000) (<= li_41 42.000000)))
(declare-fun li_42 () Real)
(assert (and (>= li_42 0.000000) (<= li_42 42.000000)))
(declare-fun li_5 () Real)
(assert (and (>= li_5 0.000000) (<= li_5 42.000000)))
(declare-fun li_6 () Real)
(assert (and (>= li_6 0.000000) (<= li_6 42.000000)))
(declare-fun li_61 () Real)
(assert (and (>= li_61 0.000000) (<= li_61 42.000000)))
(declare-fun li_62 () Real)
(assert (and (>= li_62 0.000000) (<= li_62 42.000000)))
(declare-fun li_63 () Real)
(assert (and (>= li_63 0.000000) (<= li_63 42.000000)))
(declare-fun li_7 () Real)
(assert (and (>= li_7 0.000000) (<= li_7 42.000000)))
(declare-fun li_71 () Real)
(assert (and (>= li_71 0.000000) (<= li_71 42.000000)))
(declare-fun li_72 () Real)
(assert (and (>= li_72 0.000000) (<= li_72 42.000000)))
(declare-fun li_74 () Real)
(assert (and (>= li_74 0.000000) (<= li_74 42.000000)))
(declare-fun li_75 () Real)
(assert (and (>= li_75 0.000000) (<= li_75 42.000000)))
(declare-fun li_76 () Real)
(assert (and (>= li_76 0.000000) (<= li_76 42.000000)))
(declare-fun li_77 () Real)
(assert (and (>= li_77 0.000000) (<= li_77 42.000000)))
(declare-fun li_8 () Real)
(assert (and (>= li_8 0.000000) (<= li_8 42.000000)))
(declare-fun li_9 () Real)
(assert (and (>= li_9 0.000000) (<= li_9 42.000000)))
(declare-fun li_98 () Real)
(assert (and (>= li_98 0.000000) (<= li_98 42.000000)))
(declare-fun p_perrA () Real)
(assert (and (>= p_perrA 0.000000) (<= p_perrA 1.000000)))
(declare-fun p_perrB () Real)
(assert (and (>= p_perrB 0.000000) (<= p_perrB 1.000000)))
(declare-fun p_prob1 () Real)
(assert (and (>= p_prob1 0.000000) (<= p_prob1 1.000000)))
(declare-fun p_prob2 () Real)
(assert (and (>= p_prob2 0.000000) (<= p_prob2 1.000000)))
(declare-fun ri_0 () Bool)
(declare-fun ri_12 () Bool)
(declare-fun ri_13 () Bool)
(declare-fun ri_14 () Bool)
(declare-fun ri_15 () Bool)
(declare-fun ri_16 () Bool)
(declare-fun ri_17 () Bool)
(declare-fun ri_18 () Bool)
(declare-fun ri_19 () Bool)
(declare-fun ri_2 () Bool)
(declare-fun ri_20 () Bool)
(declare-fun ri_21 () Bool)
(declare-fun ri_22 () Bool)
(declare-fun ri_23 () Bool)
(declare-fun ri_24 () Bool)
(declare-fun ri_25 () Bool)
(declare-fun ri_26 () Bool)
(declare-fun ri_3 () Bool)
(declare-fun ri_34 () Bool)
(declare-fun ri_35 () Bool)
(declare-fun ri_37 () Bool)
(declare-fun ri_38 () Bool)
(declare-fun ri_39 () Bool)
(declare-fun ri_4 () Bool)
(declare-fun ri_40 () Bool)
(declare-fun ri_41 () Bool)
(declare-fun ri_42 () Bool)
(declare-fun ri_5 () Bool)
(declare-fun ri_6 () Bool)
(declare-fun ri_61 () Bool)
(declare-fun ri_62 () Bool)
(declare-fun ri_63 () Bool)
(declare-fun ri_7 () Bool)
(declare-fun ri_71 () Bool)
(declare-fun ri_72 () Bool)
(declare-fun ri_74 () Bool)
(declare-fun ri_75 () Bool)
(declare-fun ri_76 () Bool)
(declare-fun ri_77 () Bool)
(declare-fun ri_8 () Bool)
(declare-fun ri_9 () Bool)
(declare-fun ri_98 () Bool)
(declare-fun t_0_2 () Real)
(assert (and (>= t_0_2 0) (<= t_0_2 1)))
(declare-fun t_0_3 () Real)
(assert (and (>= t_0_3 0) (<= t_0_3 1)))
(declare-fun t_12_16 () Real)
(assert (and (>= t_12_16 0) (<= t_12_16 1)))
(declare-fun t_12_17 () Real)
(assert (and (>= t_12_17 0) (<= t_12_17 1)))
(declare-fun t_13_18 () Real)
(assert (and (>= t_13_18 0) (<= t_13_18 1)))
(declare-fun t_13_19 () Real)
(assert (and (>= t_13_19 0) (<= t_13_19 1)))
(declare-fun t_14_20 () Real)
(assert (and (>= t_14_20 0) (<= t_14_20 1)))
(declare-fun t_14_21 () Real)
(assert (and (>= t_14_21 0) (<= t_14_21 1)))
(declare-fun t_15_22 () Real)
(assert (and (>= t_15_22 0) (<= t_15_22 1)))
(declare-fun t_15_23 () Real)
(assert (and (>= t_15_23 0) (<= t_15_23 1)))
(declare-fun t_16_24 () Real)
(assert (and (>= t_16_24 0) (<= t_16_24 1)))
(declare-fun t_16_25 () Real)
(assert (and (>= t_16_25 0) (<= t_16_25 1)))
(declare-fun t_17_24 () Real)
(assert (and (>= t_17_24 0) (<= t_17_24 1)))
(declare-fun t_17_25 () Real)
(assert (and (>= t_17_25 0) (<= t_17_25 1)))
(declare-fun t_18_24 () Real)
(assert (and (>= t_18_24 0) (<= t_18_24 1)))
(declare-fun t_18_25 () Real)
(assert (and (>= t_18_25 0) (<= t_18_25 1)))
(declare-fun t_19_24 () Real)
(assert (and (>= t_19_24 0) (<= t_19_24 1)))
(declare-fun t_19_25 () Real)
(assert (and (>= t_19_25 0) (<= t_19_25 1)))
(declare-fun t_20_25 () Real)
(assert (and (>= t_20_25 0) (<= t_20_25 1)))
(declare-fun t_20_26 () Real)
(assert (and (>= t_20_26 0) (<= t_20_26 1)))
(declare-fun t_21_25 () Real)
(assert (and (>= t_21_25 0) (<= t_21_25 1)))
(declare-fun t_21_26 () Real)
(assert (and (>= t_21_26 0) (<= t_21_26 1)))
(declare-fun t_22_25 () Real)
(assert (and (>= t_22_25 0) (<= t_22_25 1)))
(declare-fun t_22_26 () Real)
(assert (and (>= t_22_26 0) (<= t_22_26 1)))
(declare-fun t_23_25 () Real)
(assert (and (>= t_23_25 0) (<= t_23_25 1)))
(declare-fun t_23_26 () Real)
(assert (and (>= t_23_26 0) (<= t_23_26 1)))
(declare-fun t_24_37 () Real)
(assert (and (>= t_24_37 0) (<= t_24_37 1)))
(declare-fun t_24_40 () Real)
(assert (and (>= t_24_40 0) (<= t_24_40 1)))
(declare-fun t_25_34 () Real)
(assert (and (>= t_25_34 0) (<= t_25_34 1)))
(declare-fun t_25_35 () Real)
(assert (and (>= t_25_35 0) (<= t_25_35 1)))
(declare-fun t_26_39 () Real)
(assert (and (>= t_26_39 0) (<= t_26_39 1)))
(declare-fun t_26_42 () Real)
(assert (and (>= t_26_42 0) (<= t_26_42 1)))
(declare-fun t_2_4 () Real)
(assert (and (>= t_2_4 0) (<= t_2_4 1)))
(declare-fun t_2_5 () Real)
(assert (and (>= t_2_5 0) (<= t_2_5 1)))
(declare-fun t_34_37 () Real)
(assert (and (>= t_34_37 0) (<= t_34_37 1)))
(declare-fun t_34_40 () Real)
(assert (and (>= t_34_40 0) (<= t_34_40 1)))
(declare-fun t_35_38 () Real)
(assert (and (>= t_35_38 0) (<= t_35_38 1)))
(declare-fun t_35_41 () Real)
(assert (and (>= t_35_41 0) (<= t_35_41 1)))
(declare-fun t_37_61 () Real)
(assert (and (>= t_37_61 0) (<= t_37_61 1)))
(declare-fun t_37_62 () Real)
(assert (and (>= t_37_62 0) (<= t_37_62 1)))
(declare-fun t_38_61 () Real)
(assert (and (>= t_38_61 0) (<= t_38_61 1)))
(declare-fun t_38_62 () Real)
(assert (and (>= t_38_62 0) (<= t_38_62 1)))
(declare-fun t_39_61 () Real)
(assert (and (>= t_39_61 0) (<= t_39_61 1)))
(declare-fun t_39_62 () Real)
(assert (and (>= t_39_62 0) (<= t_39_62 1)))
(declare-fun t_3_6 () Real)
(assert (and (>= t_3_6 0) (<= t_3_6 1)))
(declare-fun t_3_7 () Real)
(assert (and (>= t_3_7 0) (<= t_3_7 1)))
(declare-fun t_40_62 () Real)
(assert (and (>= t_40_62 0) (<= t_40_62 1)))
(declare-fun t_40_63 () Real)
(assert (and (>= t_40_63 0) (<= t_40_63 1)))
(declare-fun t_41_62 () Real)
(assert (and (>= t_41_62 0) (<= t_41_62 1)))
(declare-fun t_41_63 () Real)
(assert (and (>= t_41_63 0) (<= t_41_63 1)))
(declare-fun t_42_62 () Real)
(assert (and (>= t_42_62 0) (<= t_42_62 1)))
(declare-fun t_42_63 () Real)
(assert (and (>= t_42_63 0) (<= t_42_63 1)))
(declare-fun t_4_8 () Real)
(assert (and (>= t_4_8 0) (<= t_4_8 1)))
(declare-fun t_4_9 () Real)
(assert (and (>= t_4_9 0) (<= t_4_9 1)))
(declare-fun t_5_8 () Real)
(assert (and (>= t_5_8 0) (<= t_5_8 1)))
(declare-fun t_5_9 () Real)
(assert (and (>= t_5_9 0) (<= t_5_9 1)))
(declare-fun t_61_74 () Real)
(assert (and (>= t_61_74 0) (<= t_61_74 1)))
(declare-fun t_61_77 () Real)
(assert (and (>= t_61_77 0) (<= t_61_77 1)))
(declare-fun t_62_71 () Real)
(assert (and (>= t_62_71 0) (<= t_62_71 1)))
(declare-fun t_62_72 () Real)
(assert (and (>= t_62_72 0) (<= t_62_72 1)))
(declare-fun t_63_76 () Real)
(assert (and (>= t_63_76 0) (<= t_63_76 1)))
(declare-fun t_63_77 () Real)
(assert (and (>= t_63_77 0) (<= t_63_77 1)))
(declare-fun t_6_8 () Real)
(assert (and (>= t_6_8 0) (<= t_6_8 1)))
(declare-fun t_6_9 () Real)
(assert (and (>= t_6_9 0) (<= t_6_9 1)))
(declare-fun t_71_74 () Real)
(assert (and (>= t_71_74 0) (<= t_71_74 1)))
(declare-fun t_71_77 () Real)
(assert (and (>= t_71_77 0) (<= t_71_77 1)))
(declare-fun t_72_75 () Real)
(assert (and (>= t_72_75 0) (<= t_72_75 1)))
(declare-fun t_72_77 () Real)
(assert (and (>= t_72_77 0) (<= t_72_77 1)))
(declare-fun t_74_77 () Real)
(assert (and (>= t_74_77 0) (<= t_74_77 1)))
(declare-fun t_74_98 () Real)
(assert (and (>= t_74_98 0) (<= t_74_98 1)))
(declare-fun t_75_77 () Real)
(assert (and (>= t_75_77 0) (<= t_75_77 1)))
(declare-fun t_75_98 () Real)
(assert (and (>= t_75_98 0) (<= t_75_98 1)))
(declare-fun t_76_77 () Real)
(assert (and (>= t_76_77 0) (<= t_76_77 1)))
(declare-fun t_76_98 () Real)
(assert (and (>= t_76_98 0) (<= t_76_98 1)))
(declare-fun t_77_77 () Real)
(assert (and (>= t_77_77 0) (<= t_77_77 1)))
(declare-fun t_7_8 () Real)
(assert (and (>= t_7_8 0) (<= t_7_8 1)))
(declare-fun t_7_9 () Real)
(assert (and (>= t_7_9 0) (<= t_7_9 1)))
(declare-fun t_8_12 () Real)
(assert (and (>= t_8_12 0) (<= t_8_12 1)))
(declare-fun t_8_13 () Real)
(assert (and (>= t_8_13 0) (<= t_8_13 1)))
(declare-fun t_98_98 () Real)
(assert (and (>= t_98_98 0) (<= t_98_98 1)))
(declare-fun t_9_14 () Real)
(assert (and (>= t_9_14 0) (<= t_9_14 1)))
(declare-fun t_9_15 () Real)
(assert (and (>= t_9_15 0) (<= t_9_15 1)))
(assert (= ri_0 true))
(assert (= (= ri_0 false) (= (+ t_0_2 t_0_3) 0)))
(assert (= (= ri_0 true) (= (+ t_0_2 t_0_3) 1)))
(assert (=> (= ri_0 true) (= (+ (- p_prob1) 1) t_0_2)))
(assert (=> (= ri_0 true) (= p_prob1 t_0_3)))
(assert (= li_0 1))
(assert (= (= ri_0 false) (= li_0 0)))
(assert (= ri_98 true))
(assert (= (= ri_2 false) (=  t_0_2 0)))
(assert (= (= ri_2 false) (= (+ t_2_4 t_2_5) 0)))
(assert (= (= ri_2 true) (= (+ t_2_4 t_2_5) 1)))
(assert (=> (= ri_2 true) (= (+ (- p_prob2) 1) t_2_4)))
(assert (=> (= ri_2 true) (= p_prob2 t_2_5)))
(assert (not (= li_2 1)))
(assert (=> (< li_2 1) (= li_2 0)))
(assert (=> (> li_2 1) (and (= li_2 (+ li_0 1)) (> t_0_2 0))))
(assert (= (= li_2 0) (or (= li_0 0) (= t_0_2 0))))
(assert (= (= ri_2 false) (= li_2 0)))
(assert (= ri_98 true))
(assert (= (= ri_3 false) (=  t_0_3 0)))
(assert (= (= ri_3 false) (= (+ t_3_6 t_3_7) 0)))
(assert (= (= ri_3 true) (= (+ t_3_6 t_3_7) 1)))
(assert (=> (= ri_3 true) (= (+ (- p_prob2) 1) t_3_6)))
(assert (=> (= ri_3 true) (= p_prob2 t_3_7)))
(assert (not (= li_3 1)))
(assert (=> (< li_3 1) (= li_3 0)))
(assert (=> (> li_3 1) (and (= li_3 (+ li_0 1)) (> t_0_3 0))))
(assert (= (= li_3 0) (or (= li_0 0) (= t_0_3 0))))
(assert (= (= ri_3 false) (= li_3 0)))
(assert (= ri_98 true))
(assert (= (= ri_4 false) (=  t_2_4 0)))
(assert (= (= ri_4 false) (= (+ t_4_8 t_4_9) 0)))
(assert (= (= ri_4 true) (= (+ t_4_8 t_4_9) 1)))
(assert (=> (= ri_4 true) (= p_perrA t_4_8)))
(assert (=> (= ri_4 true) (= (+ (- p_perrA) 1) t_4_9)))
(assert (not (= li_4 1)))
(assert (=> (< li_4 1) (= li_4 0)))
(assert (=> (> li_4 1) (and (= li_4 (+ li_2 1)) (> t_2_4 0))))
(assert (= (= li_4 0) (or (= li_2 0) (= t_2_4 0))))
(assert (= (= ri_4 false) (= li_4 0)))
(assert (= ri_98 true))
(assert (= (= ri_5 false) (=  t_2_5 0)))
(assert (= (= ri_5 false) (= (+ t_5_8 t_5_9) 0)))
(assert (= (= ri_5 true) (= (+ t_5_8 t_5_9) 1)))
(assert (=> (= ri_5 true) (= p_perrA t_5_8)))
(assert (=> (= ri_5 true) (= (+ (- p_perrA) 1) t_5_9)))
(assert (not (= li_5 1)))
(assert (=> (< li_5 1) (= li_5 0)))
(assert (=> (> li_5 1) (and (= li_5 (+ li_2 1)) (> t_2_5 0))))
(assert (= (= li_5 0) (or (= li_2 0) (= t_2_5 0))))
(assert (= (= ri_5 false) (= li_5 0)))
(assert (= ri_98 true))
(assert (= (= ri_6 false) (=  t_3_6 0)))
(assert (= (= ri_6 false) (= (+ t_6_8 t_6_9) 0)))
(assert (= (= ri_6 true) (= (+ t_6_8 t_6_9) 1)))
(assert (=> (= ri_6 true) (= p_perrA t_6_8)))
(assert (=> (= ri_6 true) (= (+ (- p_perrA) 1) t_6_9)))
(assert (not (= li_6 1)))
(assert (=> (< li_6 1) (= li_6 0)))
(assert (=> (> li_6 1) (and (= li_6 (+ li_3 1)) (> t_3_6 0))))
(assert (= (= li_6 0) (or (= li_3 0) (= t_3_6 0))))
(assert (= (= ri_6 false) (= li_6 0)))
(assert (= ri_98 true))
(assert (= (= ri_7 false) (=  t_3_7 0)))
(assert (= (= ri_7 false) (= (+ t_7_8 t_7_9) 0)))
(assert (= (= ri_7 true) (= (+ t_7_8 t_7_9) 1)))
(assert (=> (= ri_7 true) (= (+ (- p_perrA) 1) t_7_8)))
(assert (=> (= ri_7 true) (= p_perrA t_7_9)))
(assert (not (= li_7 1)))
(assert (=> (< li_7 1) (= li_7 0)))
(assert (=> (> li_7 1) (and (= li_7 (+ li_3 1)) (> t_3_7 0))))
(assert (= (= li_7 0) (or (= li_3 0) (= t_3_7 0))))
(assert (= (= ri_7 false) (= li_7 0)))
(assert (= ri_98 true))
(assert (= (= ri_8 false) (= (+ t_4_8 t_5_8 t_6_8 t_7_8) 0)))
(assert (= (= ri_8 false) (= (+ t_8_12 t_8_13) 0)))
(assert (= (= ri_8 true) (= (+ t_8_12 t_8_13) 1)))
(assert (=> (= ri_8 true) (= (+ (- p_prob1) 1) t_8_12)))
(assert (=> (= ri_8 true) (= p_prob1 t_8_13)))
(assert (not (= li_8 1)))
(assert (=> (< li_8 1) (= li_8 0)))
(assert (=> (> li_8 1) (or (and (= li_8 (+ li_4 1)) (> t_4_8 0)) (and (= li_8 (+ li_5 1)) (> t_5_8 0)) (and (= li_8 (+ li_6 1)) (> t_6_8 0)) (and (= li_8 (+ li_7 1)) (> t_7_8 0)))))
(assert (= (= li_8 0) (and (or (= li_4 0) (= t_4_8 0)) (or (= li_5 0) (= t_5_8 0)) (or (= li_6 0) (= t_6_8 0)) (or (= li_7 0) (= t_7_8 0)))))
(assert (= (= ri_8 false) (= li_8 0)))
(assert (= ri_98 true))
(assert (= (= ri_9 false) (= (+ t_4_9 t_5_9 t_6_9 t_7_9) 0)))
(assert (= (= ri_9 false) (= (+ t_9_14 t_9_15) 0)))
(assert (= (= ri_9 true) (= (+ t_9_14 t_9_15) 1)))
(assert (=> (= ri_9 true) (= (+ (- p_prob1) 1) t_9_14)))
(assert (=> (= ri_9 true) (= p_prob1 t_9_15)))
(assert (not (= li_9 1)))
(assert (=> (< li_9 1) (= li_9 0)))
(assert (=> (> li_9 1) (or (and (= li_9 (+ li_4 1)) (> t_4_9 0)) (and (= li_9 (+ li_5 1)) (> t_5_9 0)) (and (= li_9 (+ li_6 1)) (> t_6_9 0)) (and (= li_9 (+ li_7 1)) (> t_7_9 0)))))
(assert (= (= li_9 0) (and (or (= li_4 0) (= t_4_9 0)) (or (= li_5 0) (= t_5_9 0)) (or (= li_6 0) (= t_6_9 0)) (or (= li_7 0) (= t_7_9 0)))))
(assert (= (= ri_9 false) (= li_9 0)))
(assert (= ri_98 true))
(assert (= (= ri_12 false) (=  t_8_12 0)))
(assert (= (= ri_12 false) (= (+ t_12_16 t_12_17) 0)))
(assert (= (= ri_12 true) (= (+ t_12_16 t_12_17) 1)))
(assert (=> (= ri_12 true) (= (+ (- p_prob2) 1) t_12_16)))
(assert (=> (= ri_12 true) (= p_prob2 t_12_17)))
(assert (not (= li_12 1)))
(assert (=> (< li_12 1) (= li_12 0)))
(assert (=> (> li_12 1) (and (= li_12 (+ li_8 1)) (> t_8_12 0))))
(assert (= (= li_12 0) (or (= li_8 0) (= t_8_12 0))))
(assert (= (= ri_12 false) (= li_12 0)))
(assert (= ri_98 true))
(assert (= (= ri_13 false) (=  t_8_13 0)))
(assert (= (= ri_13 false) (= (+ t_13_18 t_13_19) 0)))
(assert (= (= ri_13 true) (= (+ t_13_18 t_13_19) 1)))
(assert (=> (= ri_13 true) (= (+ (- p_prob2) 1) t_13_18)))
(assert (=> (= ri_13 true) (= p_prob2 t_13_19)))
(assert (not (= li_13 1)))
(assert (=> (< li_13 1) (= li_13 0)))
(assert (=> (> li_13 1) (and (= li_13 (+ li_8 1)) (> t_8_13 0))))
(assert (= (= li_13 0) (or (= li_8 0) (= t_8_13 0))))
(assert (= (= ri_13 false) (= li_13 0)))
(assert (= ri_98 true))
(assert (= (= ri_14 false) (=  t_9_14 0)))
(assert (= (= ri_14 false) (= (+ t_14_20 t_14_21) 0)))
(assert (= (= ri_14 true) (= (+ t_14_20 t_14_21) 1)))
(assert (=> (= ri_14 true) (= (+ (- p_prob2) 1) t_14_20)))
(assert (=> (= ri_14 true) (= p_prob2 t_14_21)))
(assert (not (= li_14 1)))
(assert (=> (< li_14 1) (= li_14 0)))
(assert (=> (> li_14 1) (and (= li_14 (+ li_9 1)) (> t_9_14 0))))
(assert (= (= li_14 0) (or (= li_9 0) (= t_9_14 0))))
(assert (= (= ri_14 false) (= li_14 0)))
(assert (= ri_98 true))
(assert (= (= ri_15 false) (=  t_9_15 0)))
(assert (= (= ri_15 false) (= (+ t_15_22 t_15_23) 0)))
(assert (= (= ri_15 true) (= (+ t_15_22 t_15_23) 1)))
(assert (=> (= ri_15 true) (= (+ (- p_prob2) 1) t_15_22)))
(assert (=> (= ri_15 true) (= p_prob2 t_15_23)))
(assert (not (= li_15 1)))
(assert (=> (< li_15 1) (= li_15 0)))
(assert (=> (> li_15 1) (and (= li_15 (+ li_9 1)) (> t_9_15 0))))
(assert (= (= li_15 0) (or (= li_9 0) (= t_9_15 0))))
(assert (= (= ri_15 false) (= li_15 0)))
(assert (= ri_98 true))
(assert (= (= ri_16 false) (=  t_12_16 0)))
(assert (= (= ri_16 false) (= (+ t_16_24 t_16_25) 0)))
(assert (= (= ri_16 true) (= (+ t_16_24 t_16_25) 1)))
(assert (=> (= ri_16 true) (= p_perrB t_16_24)))
(assert (=> (= ri_16 true) (= (+ (- p_perrB) 1) t_16_25)))
(assert (not (= li_16 1)))
(assert (=> (< li_16 1) (= li_16 0)))
(assert (=> (> li_16 1) (and (= li_16 (+ li_12 1)) (> t_12_16 0))))
(assert (= (= li_16 0) (or (= li_12 0) (= t_12_16 0))))
(assert (= (= ri_16 false) (= li_16 0)))
(assert (= ri_98 true))
(assert (= (= ri_17 false) (=  t_12_17 0)))
(assert (= (= ri_17 false) (= (+ t_17_24 t_17_25) 0)))
(assert (= (= ri_17 true) (= (+ t_17_24 t_17_25) 1)))
(assert (=> (= ri_17 true) (= p_perrB t_17_24)))
(assert (=> (= ri_17 true) (= (+ (- p_perrB) 1) t_17_25)))
(assert (not (= li_17 1)))
(assert (=> (< li_17 1) (= li_17 0)))
(assert (=> (> li_17 1) (and (= li_17 (+ li_12 1)) (> t_12_17 0))))
(assert (= (= li_17 0) (or (= li_12 0) (= t_12_17 0))))
(assert (= (= ri_17 false) (= li_17 0)))
(assert (= ri_98 true))
(assert (= (= ri_18 false) (=  t_13_18 0)))
(assert (= (= ri_18 false) (= (+ t_18_24 t_18_25) 0)))
(assert (= (= ri_18 true) (= (+ t_18_24 t_18_25) 1)))
(assert (=> (= ri_18 true) (= p_perrB t_18_24)))
(assert (=> (= ri_18 true) (= (+ (- p_perrB) 1) t_18_25)))
(assert (not (= li_18 1)))
(assert (=> (< li_18 1) (= li_18 0)))
(assert (=> (> li_18 1) (and (= li_18 (+ li_13 1)) (> t_13_18 0))))
(assert (= (= li_18 0) (or (= li_13 0) (= t_13_18 0))))
(assert (= (= ri_18 false) (= li_18 0)))
(assert (= ri_98 true))
(assert (= (= ri_19 false) (=  t_13_19 0)))
(assert (= (= ri_19 false) (= (+ t_19_24 t_19_25) 0)))
(assert (= (= ri_19 true) (= (+ t_19_24 t_19_25) 1)))
(assert (=> (= ri_19 true) (= (+ (- p_perrB) 1) t_19_24)))
(assert (=> (= ri_19 true) (= p_perrB t_19_25)))
(assert (not (= li_19 1)))
(assert (=> (< li_19 1) (= li_19 0)))
(assert (=> (> li_19 1) (and (= li_19 (+ li_13 1)) (> t_13_19 0))))
(assert (= (= li_19 0) (or (= li_13 0) (= t_13_19 0))))
(assert (= (= ri_19 false) (= li_19 0)))
(assert (= ri_98 true))
(assert (= (= ri_20 false) (=  t_14_20 0)))
(assert (= (= ri_20 false) (= (+ t_20_25 t_20_26) 0)))
(assert (= (= ri_20 true) (= (+ t_20_25 t_20_26) 1)))
(assert (=> (= ri_20 true) (= p_perrB t_20_25)))
(assert (=> (= ri_20 true) (= (+ (- p_perrB) 1) t_20_26)))
(assert (not (= li_20 1)))
(assert (=> (< li_20 1) (= li_20 0)))
(assert (=> (> li_20 1) (and (= li_20 (+ li_14 1)) (> t_14_20 0))))
(assert (= (= li_20 0) (or (= li_14 0) (= t_14_20 0))))
(assert (= (= ri_20 false) (= li_20 0)))
(assert (= ri_98 true))
(assert (= (= ri_21 false) (=  t_14_21 0)))
(assert (= (= ri_21 false) (= (+ t_21_25 t_21_26) 0)))
(assert (= (= ri_21 true) (= (+ t_21_25 t_21_26) 1)))
(assert (=> (= ri_21 true) (= p_perrB t_21_25)))
(assert (=> (= ri_21 true) (= (+ (- p_perrB) 1) t_21_26)))
(assert (not (= li_21 1)))
(assert (=> (< li_21 1) (= li_21 0)))
(assert (=> (> li_21 1) (and (= li_21 (+ li_14 1)) (> t_14_21 0))))
(assert (= (= li_21 0) (or (= li_14 0) (= t_14_21 0))))
(assert (= (= ri_21 false) (= li_21 0)))
(assert (= ri_98 true))
(assert (= (= ri_22 false) (=  t_15_22 0)))
(assert (= (= ri_22 false) (= (+ t_22_25 t_22_26) 0)))
(assert (= (= ri_22 true) (= (+ t_22_25 t_22_26) 1)))
(assert (=> (= ri_22 true) (= p_perrB t_22_25)))
(assert (=> (= ri_22 true) (= (+ (- p_perrB) 1) t_22_26)))
(assert (not (= li_22 1)))
(assert (=> (< li_22 1) (= li_22 0)))
(assert (=> (> li_22 1) (and (= li_22 (+ li_15 1)) (> t_15_22 0))))
(assert (= (= li_22 0) (or (= li_15 0) (= t_15_22 0))))
(assert (= (= ri_22 false) (= li_22 0)))
(assert (= ri_98 true))
(assert (= (= ri_23 false) (=  t_15_23 0)))
(assert (= (= ri_23 false) (= (+ t_23_25 t_23_26) 0)))
(assert (= (= ri_23 true) (= (+ t_23_25 t_23_26) 1)))
(assert (=> (= ri_23 true) (= (+ (- p_perrB) 1) t_23_25)))
(assert (=> (= ri_23 true) (= p_perrB t_23_26)))
(assert (not (= li_23 1)))
(assert (=> (< li_23 1) (= li_23 0)))
(assert (=> (> li_23 1) (and (= li_23 (+ li_15 1)) (> t_15_23 0))))
(assert (= (= li_23 0) (or (= li_15 0) (= t_15_23 0))))
(assert (= (= ri_23 false) (= li_23 0)))
(assert (= ri_98 true))
(assert (= (= ri_24 false) (= (+ t_16_24 t_17_24 t_18_24 t_19_24) 0)))
(assert (= (= ri_24 false) (= (+ t_24_37 t_24_40) 0)))
(assert (= (= ri_24 true) (= (+ t_24_37 t_24_40) 1)))
(assert (=> (= ri_24 true) (= p_perrA t_24_37)))
(assert (=> (= ri_24 true) (= (+ (- p_perrA) 1) t_24_40)))
(assert (not (= li_24 1)))
(assert (=> (< li_24 1) (= li_24 0)))
(assert (=> (> li_24 1) (or (and (= li_24 (+ li_16 1)) (> t_16_24 0)) (and (= li_24 (+ li_17 1)) (> t_17_24 0)) (and (= li_24 (+ li_18 1)) (> t_18_24 0)) (and (= li_24 (+ li_19 1)) (> t_19_24 0)))))
(assert (= (= li_24 0) (and (or (= li_16 0) (= t_16_24 0)) (or (= li_17 0) (= t_17_24 0)) (or (= li_18 0) (= t_18_24 0)) (or (= li_19 0) (= t_19_24 0)))))
(assert (= (= ri_24 false) (= li_24 0)))
(assert (= ri_98 true))
(assert (= (= ri_25 false) (= (+ t_16_25 t_17_25 t_18_25 t_19_25 t_20_25 t_21_25 t_22_25 t_23_25) 0)))
(assert (= (= ri_25 false) (= (+ t_25_34 t_25_35) 0)))
(assert (= (= ri_25 true) (= (+ t_25_34 t_25_35) 1)))
(assert (=> (= ri_25 true) (= 0.500000000000000 t_25_34)))
(assert (=> (= ri_25 true) (= 0.500000000000000 t_25_35)))
(assert (not (= li_25 1)))
(assert (=> (< li_25 1) (= li_25 0)))
(assert (=> (> li_25 1) (or (and (= li_25 (+ li_16 1)) (> t_16_25 0)) (and (= li_25 (+ li_17 1)) (> t_17_25 0)) (and (= li_25 (+ li_18 1)) (> t_18_25 0)) (and (= li_25 (+ li_19 1)) (> t_19_25 0)) (and (= li_25 (+ li_20 1)) (> t_20_25 0)) (and (= li_25 (+ li_21 1)) (> t_21_25 0)) (and (= li_25 (+ li_22 1)) (> t_22_25 0)) (and (= li_25 (+ li_23 1)) (> t_23_25 0)))))
(assert (= (= li_25 0) (and (or (= li_16 0) (= t_16_25 0)) (or (= li_17 0) (= t_17_25 0)) (or (= li_18 0) (= t_18_25 0)) (or (= li_19 0) (= t_19_25 0)) (or (= li_20 0) (= t_20_25 0)) (or (= li_21 0) (= t_21_25 0)) (or (= li_22 0) (= t_22_25 0)) (or (= li_23 0) (= t_23_25 0)))))
(assert (= (= ri_25 false) (= li_25 0)))
(assert (= ri_98 true))
(assert (= (= ri_26 false) (= (+ t_20_26 t_21_26 t_22_26 t_23_26) 0)))
(assert (= (= ri_26 false) (= (+ t_26_39 t_26_42) 0)))
(assert (= (= ri_26 true) (= (+ t_26_39 t_26_42) 1)))
(assert (=> (= ri_26 true) (= (+ (- p_perrA) 1) t_26_39)))
(assert (=> (= ri_26 true) (= p_perrA t_26_42)))
(assert (not (= li_26 1)))
(assert (=> (< li_26 1) (= li_26 0)))
(assert (=> (> li_26 1) (or (and (= li_26 (+ li_20 1)) (> t_20_26 0)) (and (= li_26 (+ li_21 1)) (> t_21_26 0)) (and (= li_26 (+ li_22 1)) (> t_22_26 0)) (and (= li_26 (+ li_23 1)) (> t_23_26 0)))))
(assert (= (= li_26 0) (and (or (= li_20 0) (= t_20_26 0)) (or (= li_21 0) (= t_21_26 0)) (or (= li_22 0) (= t_22_26 0)) (or (= li_23 0) (= t_23_26 0)))))
(assert (= (= ri_26 false) (= li_26 0)))
(assert (= ri_98 true))
(assert (= (= ri_34 false) (=  t_25_34 0)))
(assert (= (= ri_34 false) (= (+ t_34_37 t_34_40) 0)))
(assert (= (= ri_34 true) (= (+ t_34_37 t_34_40) 1)))
(assert (=> (= ri_34 true) (= (+ (- p_perrA) 1) t_34_37)))
(assert (=> (= ri_34 true) (= p_perrA t_34_40)))
(assert (not (= li_34 1)))
(assert (=> (< li_34 1) (= li_34 0)))
(assert (=> (> li_34 1) (and (= li_34 (+ li_25 1)) (> t_25_34 0))))
(assert (= (= li_34 0) (or (= li_25 0) (= t_25_34 0))))
(assert (= (= ri_34 false) (= li_34 0)))
(assert (= ri_98 true))
(assert (= (= ri_35 false) (=  t_25_35 0)))
(assert (= (= ri_35 false) (= (+ t_35_38 t_35_41) 0)))
(assert (= (= ri_35 true) (= (+ t_35_38 t_35_41) 1)))
(assert (=> (= ri_35 true) (= p_perrA t_35_38)))
(assert (=> (= ri_35 true) (= (+ (- p_perrA) 1) t_35_41)))
(assert (not (= li_35 1)))
(assert (=> (< li_35 1) (= li_35 0)))
(assert (=> (> li_35 1) (and (= li_35 (+ li_25 1)) (> t_25_35 0))))
(assert (= (= li_35 0) (or (= li_25 0) (= t_25_35 0))))
(assert (= (= ri_35 false) (= li_35 0)))
(assert (= ri_98 true))
(assert (= (= ri_37 false) (= (+ t_24_37 t_34_37) 0)))
(assert (= (= ri_37 false) (= (+ t_37_61 t_37_62) 0)))
(assert (= (= ri_37 true) (= (+ t_37_61 t_37_62) 1)))
(assert (=> (= ri_37 true) (= p_perrB t_37_61)))
(assert (=> (= ri_37 true) (= (+ (- p_perrB) 1) t_37_62)))
(assert (not (= li_37 1)))
(assert (=> (< li_37 1) (= li_37 0)))
(assert (=> (> li_37 1) (or (and (= li_37 (+ li_24 1)) (> t_24_37 0)) (and (= li_37 (+ li_34 1)) (> t_34_37 0)))))
(assert (= (= li_37 0) (and (or (= li_24 0) (= t_24_37 0)) (or (= li_34 0) (= t_34_37 0)))))
(assert (= (= ri_37 false) (= li_37 0)))
(assert (= ri_98 true))
(assert (= (= ri_38 false) (=  t_35_38 0)))
(assert (= (= ri_38 false) (= (+ t_38_61 t_38_62) 0)))
(assert (= (= ri_38 true) (= (+ t_38_61 t_38_62) 1)))
(assert (=> (= ri_38 true) (= p_perrB t_38_61)))
(assert (=> (= ri_38 true) (= (+ (- p_perrB) 1) t_38_62)))
(assert (not (= li_38 1)))
(assert (=> (< li_38 1) (= li_38 0)))
(assert (=> (> li_38 1) (and (= li_38 (+ li_35 1)) (> t_35_38 0))))
(assert (= (= li_38 0) (or (= li_35 0) (= t_35_38 0))))
(assert (= (= ri_38 false) (= li_38 0)))
(assert (= ri_98 true))
(assert (= (= ri_39 false) (=  t_26_39 0)))
(assert (= (= ri_39 false) (= (+ t_39_61 t_39_62) 0)))
(assert (= (= ri_39 true) (= (+ t_39_61 t_39_62) 1)))
(assert (=> (= ri_39 true) (= (+ (- p_perrB) 1) t_39_61)))
(assert (=> (= ri_39 true) (= p_perrB t_39_62)))
(assert (not (= li_39 1)))
(assert (=> (< li_39 1) (= li_39 0)))
(assert (=> (> li_39 1) (and (= li_39 (+ li_26 1)) (> t_26_39 0))))
(assert (= (= li_39 0) (or (= li_26 0) (= t_26_39 0))))
(assert (= (= ri_39 false) (= li_39 0)))
(assert (= ri_98 true))
(assert (= (= ri_40 false) (= (+ t_24_40 t_34_40) 0)))
(assert (= (= ri_40 false) (= (+ t_40_62 t_40_63) 0)))
(assert (= (= ri_40 true) (= (+ t_40_62 t_40_63) 1)))
(assert (=> (= ri_40 true) (= p_perrB t_40_62)))
(assert (=> (= ri_40 true) (= (+ (- p_perrB) 1) t_40_63)))
(assert (not (= li_40 1)))
(assert (=> (< li_40 1) (= li_40 0)))
(assert (=> (> li_40 1) (or (and (= li_40 (+ li_24 1)) (> t_24_40 0)) (and (= li_40 (+ li_34 1)) (> t_34_40 0)))))
(assert (= (= li_40 0) (and (or (= li_24 0) (= t_24_40 0)) (or (= li_34 0) (= t_34_40 0)))))
(assert (= (= ri_40 false) (= li_40 0)))
(assert (= ri_98 true))
(assert (= (= ri_41 false) (=  t_35_41 0)))
(assert (= (= ri_41 false) (= (+ t_41_62 t_41_63) 0)))
(assert (= (= ri_41 true) (= (+ t_41_62 t_41_63) 1)))
(assert (=> (= ri_41 true) (= p_perrB t_41_62)))
(assert (=> (= ri_41 true) (= (+ (- p_perrB) 1) t_41_63)))
(assert (not (= li_41 1)))
(assert (=> (< li_41 1) (= li_41 0)))
(assert (=> (> li_41 1) (and (= li_41 (+ li_35 1)) (> t_35_41 0))))
(assert (= (= li_41 0) (or (= li_35 0) (= t_35_41 0))))
(assert (= (= ri_41 false) (= li_41 0)))
(assert (= ri_98 true))
(assert (= (= ri_42 false) (=  t_26_42 0)))
(assert (= (= ri_42 false) (= (+ t_42_62 t_42_63) 0)))
(assert (= (= ri_42 true) (= (+ t_42_62 t_42_63) 1)))
(assert (=> (= ri_42 true) (= (+ (- p_perrB) 1) t_42_62)))
(assert (=> (= ri_42 true) (= p_perrB t_42_63)))
(assert (not (= li_42 1)))
(assert (=> (< li_42 1) (= li_42 0)))
(assert (=> (> li_42 1) (and (= li_42 (+ li_26 1)) (> t_26_42 0))))
(assert (= (= li_42 0) (or (= li_26 0) (= t_26_42 0))))
(assert (= (= ri_42 false) (= li_42 0)))
(assert (= ri_98 true))
(assert (= (= ri_61 false) (= (+ t_37_61 t_38_61 t_39_61) 0)))
(assert (= (= ri_61 false) (= (+ t_61_74 t_61_77) 0)))
(assert (= (= ri_61 true) (= (+ t_61_74 t_61_77) 1)))
(assert (=> (= ri_61 true) (= p_perrA t_61_74)))
(assert (=> (= ri_61 true) (= (+ (- p_perrA) 1) t_61_77)))
(assert (not (= li_61 1)))
(assert (=> (< li_61 1) (= li_61 0)))
(assert (=> (> li_61 1) (or (and (= li_61 (+ li_37 1)) (> t_37_61 0)) (and (= li_61 (+ li_38 1)) (> t_38_61 0)) (and (= li_61 (+ li_39 1)) (> t_39_61 0)))))
(assert (= (= li_61 0) (and (or (= li_37 0) (= t_37_61 0)) (or (= li_38 0) (= t_38_61 0)) (or (= li_39 0) (= t_39_61 0)))))
(assert (= (= ri_61 false) (= li_61 0)))
(assert (= ri_98 true))
(assert (= (= ri_62 false) (= (+ t_37_62 t_38_62 t_39_62 t_40_62 t_41_62 t_42_62) 0)))
(assert (= (= ri_62 false) (= (+ t_62_71 t_62_72) 0)))
(assert (= (= ri_62 true) (= (+ t_62_71 t_62_72) 1)))
(assert (=> (= ri_62 true) (= 0.500000000000000 t_62_71)))
(assert (=> (= ri_62 true) (= 0.500000000000000 t_62_72)))
(assert (not (= li_62 1)))
(assert (=> (< li_62 1) (= li_62 0)))
(assert (=> (> li_62 1) (or (and (= li_62 (+ li_37 1)) (> t_37_62 0)) (and (= li_62 (+ li_38 1)) (> t_38_62 0)) (and (= li_62 (+ li_39 1)) (> t_39_62 0)) (and (= li_62 (+ li_40 1)) (> t_40_62 0)) (and (= li_62 (+ li_41 1)) (> t_41_62 0)) (and (= li_62 (+ li_42 1)) (> t_42_62 0)))))
(assert (= (= li_62 0) (and (or (= li_37 0) (= t_37_62 0)) (or (= li_38 0) (= t_38_62 0)) (or (= li_39 0) (= t_39_62 0)) (or (= li_40 0) (= t_40_62 0)) (or (= li_41 0) (= t_41_62 0)) (or (= li_42 0) (= t_42_62 0)))))
(assert (= (= ri_62 false) (= li_62 0)))
(assert (= ri_98 true))
(assert (= (= ri_63 false) (= (+ t_40_63 t_41_63 t_42_63) 0)))
(assert (= (= ri_63 false) (= (+ t_63_76 t_63_77) 0)))
(assert (= (= ri_63 true) (= (+ t_63_76 t_63_77) 1)))
(assert (=> (= ri_63 true) (= (+ (- p_perrA) 1) t_63_76)))
(assert (=> (= ri_63 true) (= p_perrA t_63_77)))
(assert (not (= li_63 1)))
(assert (=> (< li_63 1) (= li_63 0)))
(assert (=> (> li_63 1) (or (and (= li_63 (+ li_40 1)) (> t_40_63 0)) (and (= li_63 (+ li_41 1)) (> t_41_63 0)) (and (= li_63 (+ li_42 1)) (> t_42_63 0)))))
(assert (= (= li_63 0) (and (or (= li_40 0) (= t_40_63 0)) (or (= li_41 0) (= t_41_63 0)) (or (= li_42 0) (= t_42_63 0)))))
(assert (= (= ri_63 false) (= li_63 0)))
(assert (= ri_98 true))
(assert (= (= ri_71 false) (=  t_62_71 0)))
(assert (= (= ri_71 false) (= (+ t_71_74 t_71_77) 0)))
(assert (= (= ri_71 true) (= (+ t_71_74 t_71_77) 1)))
(assert (=> (= ri_71 true) (= (+ (- p_perrA) 1) t_71_74)))
(assert (=> (= ri_71 true) (= p_perrA t_71_77)))
(assert (not (= li_71 1)))
(assert (=> (< li_71 1) (= li_71 0)))
(assert (=> (> li_71 1) (and (= li_71 (+ li_62 1)) (> t_62_71 0))))
(assert (= (= li_71 0) (or (= li_62 0) (= t_62_71 0))))
(assert (= (= ri_71 false) (= li_71 0)))
(assert (= ri_98 true))
(assert (= (= ri_72 false) (=  t_62_72 0)))
(assert (= (= ri_72 false) (= (+ t_72_75 t_72_77) 0)))
(assert (= (= ri_72 true) (= (+ t_72_75 t_72_77) 1)))
(assert (=> (= ri_72 true) (= p_perrA t_72_75)))
(assert (=> (= ri_72 true) (= (+ (- p_perrA) 1) t_72_77)))
(assert (not (= li_72 1)))
(assert (=> (< li_72 1) (= li_72 0)))
(assert (=> (> li_72 1) (and (= li_72 (+ li_62 1)) (> t_62_72 0))))
(assert (= (= li_72 0) (or (= li_62 0) (= t_62_72 0))))
(assert (= (= ri_72 false) (= li_72 0)))
(assert (= ri_98 true))
(assert (= (= ri_74 false) (= (+ t_61_74 t_71_74) 0)))
(assert (= (= ri_74 false) (= (+ t_74_77 t_74_98) 0)))
(assert (= (= ri_74 true) (= (+ t_74_77 t_74_98) 1)))
(assert (=> (= ri_74 true) (= (+ (- p_perrB) 1) t_74_77)))
(assert (=> (= ri_74 true) (= p_perrB t_74_98)))
(assert (not (= li_74 1)))
(assert (=> (< li_74 1) (= li_74 0)))
(assert (=> (> li_74 1) (or (and (= li_74 (+ li_61 1)) (> t_61_74 0)) (and (= li_74 (+ li_71 1)) (> t_71_74 0)))))
(assert (= (= li_74 0) (and (or (= li_61 0) (= t_61_74 0)) (or (= li_71 0) (= t_71_74 0)))))
(assert (= (= ri_74 false) (= li_74 0)))
(assert (= ri_98 true))
(assert (= (= ri_75 false) (=  t_72_75 0)))
(assert (= (= ri_75 false) (= (+ t_75_77 t_75_98) 0)))
(assert (= (= ri_75 true) (= (+ t_75_77 t_75_98) 1)))
(assert (=> (= ri_75 true) (= (+ (- p_perrB) 1) t_75_77)))
(assert (=> (= ri_75 true) (= p_perrB t_75_98)))
(assert (not (= li_75 1)))
(assert (=> (< li_75 1) (= li_75 0)))
(assert (=> (> li_75 1) (and (= li_75 (+ li_72 1)) (> t_72_75 0))))
(assert (= (= li_75 0) (or (= li_72 0) (= t_72_75 0))))
(assert (= (= ri_75 false) (= li_75 0)))
(assert (= ri_98 true))
(assert (= (= ri_76 false) (=  t_63_76 0)))
(assert (= (= ri_76 false) (= (+ t_76_77 t_76_98) 0)))
(assert (= (= ri_76 true) (= (+ t_76_77 t_76_98) 1)))
(assert (=> (= ri_76 true) (= p_perrB t_76_77)))
(assert (=> (= ri_76 true) (= (+ (- p_perrB) 1) t_76_98)))
(assert (not (= li_76 1)))
(assert (=> (< li_76 1) (= li_76 0)))
(assert (=> (> li_76 1) (and (= li_76 (+ li_63 1)) (> t_63_76 0))))
(assert (= (= li_76 0) (or (= li_63 0) (= t_63_76 0))))
(assert (= (= ri_76 false) (= li_76 0)))
(assert (= ri_98 true))
(assert (= (= ri_77 false) (= (+ t_61_77 t_63_77 t_71_77 t_72_77 t_74_77 t_75_77 t_76_77) 0)))
(assert (= (= ri_77 false) (=  t_77_77 0)))
(assert (= (= ri_77 true) (=  t_77_77 1)))
(assert (=> (= ri_77 true) (= 1.00000000000000 t_77_77)))
(assert (not (= li_77 1)))
(assert (=> (< li_77 1) (= li_77 0)))
(assert (=> (> li_77 1) (or (and (= li_77 (+ li_61 1)) (> t_61_77 0)) (and (= li_77 (+ li_63 1)) (> t_63_77 0)) (and (= li_77 (+ li_71 1)) (> t_71_77 0)) (and (= li_77 (+ li_72 1)) (> t_72_77 0)) (and (= li_77 (+ li_74 1)) (> t_74_77 0)) (and (= li_77 (+ li_75 1)) (> t_75_77 0)) (and (= li_77 (+ li_76 1)) (> t_76_77 0)))))
(assert (= (= li_77 0) (and (or (= li_61 0) (= t_61_77 0)) (or (= li_63 0) (= t_63_77 0)) (or (= li_71 0) (= t_71_77 0)) (or (= li_72 0) (= t_72_77 0)) (or (= li_74 0) (= t_74_77 0)) (or (= li_75 0) (= t_75_77 0)) (or (= li_76 0) (= t_76_77 0)))))
(assert (= (= ri_77 false) (= li_77 0)))
(assert (= ri_98 true))
(assert (= (= ri_98 false) (= (+ t_74_98 t_75_98 t_76_98) 0)))
(assert (= (= ri_98 false) (=  t_98_98 0)))
(assert (= (= ri_98 true) (=  t_98_98 1)))
(assert (=> (= ri_98 true) (= 1 t_98_98)))
(assert (not (= li_98 1)))
(assert (=> (< li_98 1) (= li_98 0)))
(assert (=> (> li_98 1) (or (and (= li_98 (+ li_74 1)) (> t_74_98 0)) (and (= li_98 (+ li_75 1)) (> t_75_98 0)) (and (= li_98 (+ li_76 1)) (> t_76_98 0)))))
(assert (= (= li_98 0) (and (or (= li_74 0) (= t_74_98 0)) (or (= li_75 0) (= t_75_98 0)) (or (= li_76 0) (= t_76_98 0)))))
(assert (= (= ri_98 false) (= li_98 0)))
(assert (= ri_98 true))
(check-sat)
(get-value (li_0 li_12 li_13 li_14 li_15 li_16 li_17 li_18 li_19 li_2 li_20 li_21 li_22 li_23 li_24 li_25 li_26 li_3 li_34 li_35 li_37 li_38 li_39 li_4 li_40 li_41 li_42 li_5 li_6 li_61 li_62 li_63 li_7 li_71 li_72 li_74 li_75 li_76 li_77 li_8 li_9 li_98 p_perrA p_perrB p_prob1 p_prob2 ri_0 ri_12 ri_13 ri_14 ri_15 ri_16 ri_17 ri_18 ri_19 ri_2 ri_20 ri_21 ri_22 ri_23 ri_24 ri_25 ri_26 ri_3 ri_34 ri_35 ri_37 ri_38 ri_39 ri_4 ri_40 ri_41 ri_42 ri_5 ri_6 ri_61 ri_62 ri_63 ri_7 ri_71 ri_72 ri_74 ri_75 ri_76 ri_77 ri_8 ri_9 ri_98 t_0_2 t_0_3 t_12_16 t_12_17 t_13_18 t_13_19 t_14_20 t_14_21 t_15_22 t_15_23 t_16_24 t_16_25 t_17_24 t_17_25 t_18_24 t_18_25 t_19_24 t_19_25 t_20_25 t_20_26 t_21_25 t_21_26 t_22_25 t_22_26 t_23_25 t_23_26 t_24_37 t_24_40 t_25_34 t_25_35 t_26_39 t_26_42 t_2_4 t_2_5 t_34_37 t_34_40 t_35_38 t_35_41 t_37_61 t_37_62 t_38_61 t_38_62 t_39_61 t_39_62 t_3_6 t_3_7 t_40_62 t_40_63 t_41_62 t_41_63 t_42_62 t_42_63 t_4_8 t_4_9 t_5_8 t_5_9 t_61_74 t_61_77 t_62_71 t_62_72 t_63_76 t_63_77 t_6_8 t_6_9 t_71_74 t_71_77 t_72_75 t_72_77 t_74_77 t_74_98 t_75_77 t_75_98 t_76_77 t_76_98 t_77_77 t_7_8 t_7_9 t_8_12 t_8_13 t_98_98 t_9_14 t_9_15))
(get-info :all-statistics)
